 200 17 
 26 81 3 36 88 49 95 82 62 1 39 9 
 35 55 12 37 83 
 6 
 4 10 11 12 15 16 
 16 
 1 2 3 4 5 6 7 8 9 10 11 12 
 13 15 16 17 
 11 
 1 4 5 6 7 8 10 11 12 14 15 
 10 
 1 2 3 5 6 10 13 14 16 17 
 11 
 1 2 3 4 5 8 9 11 13 16 17 
 8 
 2 4 6 7 10 11 14 17 
 2 
 3 5 
 17 
 1 2 3 4 5 6 7 8 9 10 11 12 
 13 14 15 16 17 
 10 
 1 4 6 7 8 9 10 11 13 15 
 13 
 2 3 5 6 7 8 9 10 12 13 14 16 
 17 
 14 
 1 2 4 5 6 7 9 10 11 12 13 14 
 15 16 
 4 
 2 3 4 7 
 3 
 1 8 13 
 8 
 7 8 10 11 13 14 15 16 
 7 
 2 3 5 7 10 11 15 
 10 
 1 2 6 9 11 13 14 15 16 17 
 6 
 2 5 8 9 15 17 
 5 
 4 9 12 14 16 
 16 
 1 2 3 4 5 6 7 8 9 10 11 12 
 13 14 16 17 
 14 
 1 2 4 5 6 7 8 10 11 12 13 14 
 16 17 
 7 
 3 4 5 8 14 16 17 
 12 
 1 2 4 5 6 10 11 12 13 14 15 17 
 5 
 1 9 12 14 17 
 3 
 6 13 17 
 16 
 1 2 3 4 5 6 7 8 9 10 11 12 
 13 14 16 17 
 8 
 2 4 5 6 13 14 16 17 
 6 
 3 5 9 10 14 16 
 9 
 2 3 4 7 9 10 14 16 17 
 15 
 1 2 3 4 5 6 8 9 10 11 12 13 
 14 15 17 
 9 
 3 4 8 10 12 13 14 15 16 
 12 
 1 3 6 7 8 9 10 12 13 14 15 16 
 11 
 2 3 4 5 6 7 8 11 13 15 16 
 11 
 1 3 4 6 7 8 10 11 13 15 17 
 4 
 1 5 10 11 
 10 
 5 7 8 9 10 11 12 14 16 17 
 7 
 1 3 4 8 9 16 17 
 13 
 1 3 4 5 6 8 9 10 11 13 14 15 
 17 
 14 
 1 2 3 4 7 8 9 10 11 12 13 15 
 16 17 
 6 
 1 6 7 11 12 15 
 5 
 2 3 5 13 16 
 7 
 2 5 7 8 11 16 17 
 12 
 1 2 3 4 5 6 8 9 11 13 15 16 
 2 
 3 4 
 8 
 1 5 6 8 11 13 14 16 
 17 
 1 2 3 4 5 6 7 8 9 10 11 12 
 13 14 15 16 17 
 10 
 2 3 4 6 7 8 11 13 15 17 
 10 
 2 4 9 10 11 12 14 15 16 17 
 14 
 1 3 4 5 6 7 8 10 12 13 14 15 
 16 17 
 15 
 1 3 4 6 7 8 9 10 11 12 13 14 
 15 16 17 
 16 
 1 2 3 4 5 6 7 8 9 10 12 13 
 14 15 16 17 
 13 
 2 3 4 6 7 8 9 10 11 13 14 15 
 16 
 3 
 1 10 14 
 8 
 1 2 7 8 9 13 15 16 
 13 
 2 3 5 6 7 9 10 11 12 13 14 15 
 16 
 2 
 1 7 
 7 
 1 9 11 12 14 15 16 
 17 
 1 2 3 4 5 6 7 8 9 10 11 12 
 13 14 15 16 17 
 13 
 1 2 3 4 5 6 7 8 9 10 11 12 
 14 
 15 
 1 2 3 4 5 7 8 9 10 12 13 14 
 15 16 17 
 10 
 2 4 5 6 7 11 12 13 15 17 
 13 
 2 3 4 5 6 7 8 9 10 12 14 15 
 16 
 13 
 1 4 5 6 7 9 10 11 12 13 15 16 
 17 
 13 
 1 2 3 5 6 7 8 9 10 12 13 14 
 16 
 17 
 1 2 3 4 5 6 7 8 9 10 11 12 
 13 14 15 16 17 
 8 
 1 2 5 7 8 9 14 17 
 9 
 1 2 3 5 7 8 9 11 17 
 16 
 1 2 3 4 5 6 7 9 10 11 12 13 
 14 15 16 17 
 15 
 1 2 3 4 5 6 8 10 11 12 13 14 
 15 16 17 
 4 
 1 8 13 15 
 4 
 12 13 14 16 
 8 
 1 2 3 6 9 14 15 17 
 8 
 3 5 7 9 10 12 15 17 
 15 
 1 2 3 4 5 6 7 8 10 11 13 14 
 15 16 17 
 15 
 1 2 4 5 6 7 8 9 10 11 13 14 
 15 16 17 
 14 
 2 5 6 7 8 9 10 11 12 13 14 15 
 16 17 
 11 
 1 2 3 5 6 7 8 10 11 13 17 
 17 
 1 2 3 4 5 6 7 8 9 10 11 12 
 13 14 15 16 17 
 2 
 8 9 
 6 
 6 9 10 12 14 16 
 11 
 1 2 4 5 6 7 8 9 12 14 16 
 4 
 6 7 11 15 
 3 
 5 12 17 
 14 
 1 2 4 5 6 8 9 10 11 13 14 15 
 16 17 
 8 
 3 4 7 10 11 12 16 17 
 7 
 2 4 8 9 12 14 16 
 10 
 2 3 4 5 6 7 8 9 11 13 
 15 
 1 2 5 6 7 8 9 10 11 12 13 14 
 15 16 17 
 6 
 3 4 5 6 9 16 
 14 
 1 2 3 4 5 7 8 9 10 11 12 13 
 15 16 
 4 
 3 5 11 14 
 13 
 1 3 4 7 8 9 10 11 13 14 15 16 
 17 
 17 
 1 2 3 4 5 6 7 8 9 10 11 12 
 13 14 15 16 17 
 7 
 2 7 8 11 13 15 17 
 13 
 1 2 5 6 7 10 11 12 13 14 15 16 
 17 
 15 
 1 4 5 6 7 8 9 10 11 12 13 14 
 15 16 17 
 8 
 2 4 6 7 8 10 13 14 
 12 
 1 2 4 5 6 7 8 9 10 11 13 17 
 4 
 1 2 9 17 
 13 
 1 2 3 4 5 7 8 10 11 12 13 15 
 17 
 7 
 2 3 4 6 11 15 17 
 14 
 1 2 3 5 6 7 8 9 10 11 12 14 
 15 17 
 14 
 2 3 5 6 7 8 9 10 11 12 13 15 
 16 17 
 12 
 1 2 3 4 5 6 9 10 12 13 15 17 
 15 
 1 2 3 4 5 6 7 8 10 11 12 14 
 15 16 17 
 2 
 5 17 
 17 
 1 2 3 4 5 6 7 8 9 10 11 12 
 13 14 15 16 17 
 11 
 1 2 3 5 9 10 13 14 15 16 17 
 13 
 3 4 5 6 8 10 11 12 13 14 15 16 
 17 
 9 
 1 2 6 8 9 10 11 16 17 
 9 
 3 6 7 8 11 13 14 15 16 
 14 
 3 4 5 6 7 9 10 11 12 13 14 15 
 16 17 
 10 
 3 6 7 8 9 11 12 13 16 17 
 11 
 1 2 4 5 7 8 11 14 15 16 17 
 11 
 1 3 4 5 9 10 11 12 14 15 17 
 14 
 1 3 5 6 7 8 9 10 11 12 14 15 
 16 17 
 17 
 1 2 3 4 5 6 7 8 9 10 11 12 
 13 14 15 16 17 
 3 
 4 10 17 
 10 
 3 4 6 8 9 12 13 15 16 17 
 10 
 3 4 5 6 7 10 14 15 16 17 
 2 
 13 17 
 4 
 1 4 6 16 
 10 
 1 2 3 4 7 8 10 11 12 14 
 17 
 1 2 3 4 5 6 7 8 9 10 11 12 
 13 14 15 16 17 
 13 
 1 2 4 5 8 10 11 12 13 14 15 16 
 17 
 5 
 4 5 13 15 16 
 10 
 2 3 4 5 7 8 9 12 15 16 
 7 
 1 2 4 9 10 12 17 
 11 
 1 2 3 4 8 9 10 12 14 16 17 
 4 
 2 6 8 10 
 10 
 3 4 5 7 10 11 12 14 15 16 
 5 
 1 11 13 16 17 
 14 
 1 2 5 6 7 8 9 10 11 12 14 15 
 16 17 
 8 
 1 2 3 6 8 13 16 17 
 12 
 1 5 6 8 9 10 11 12 14 15 16 17 
 15 
 2 3 4 5 7 8 9 10 11 12 13 14 
 15 16 17 
 17 
 1 2 3 4 5 6 7 8 9 10 11 12 
 13 14 15 16 17 
 14 
 1 2 4 5 6 7 8 11 12 13 14 15 
 16 17 
 11 
 1 2 3 5 6 9 10 12 13 16 17 
 3 
 3 12 16 
 16 
 1 2 4 5 6 7 8 9 10 11 12 13 
 14 15 16 17 
 16 
 1 2 3 4 6 7 8 9 10 11 12 13 
 14 15 16 17 
 5 
 1 4 6 14 16 
 13 
 1 3 5 6 8 9 10 11 12 13 14 15 
 16 
 17 
 1 2 3 4 5 6 7 8 9 10 11 12 
 13 14 15 16 17 
 8 
 2 3 8 9 11 15 16 17 
 13 
 3 4 5 6 8 9 10 11 12 13 15 16 
 17 
 14 
 1 2 3 5 6 7 9 10 11 12 13 14 
 16 17 
 15 
 1 2 4 5 6 7 8 10 11 12 13 14 
 15 16 17 
 9 
 2 3 5 7 9 11 12 15 17 
 12 
 1 2 6 7 9 11 12 13 14 15 16 17 
 15 
 2 3 4 5 6 7 8 9 10 11 12 13 
 14 15 17 
 15 
 1 2 3 4 5 6 7 9 10 12 13 14 
 15 16 17 
 11 
 1 2 3 4 5 7 8 14 15 16 17 
 16 
 1 2 3 4 5 6 7 8 9 10 11 12 
 13 14 15 16 
 5 
 2 6 9 11 15 
 10 
 3 4 6 9 10 11 12 13 14 15 
 9 
 2 3 6 7 8 10 11 14 16 
 5 
 5 6 8 13 14 
 13 
 1 3 4 5 6 7 8 9 10 11 14 15 
 17 
 12 
 1 2 3 5 6 7 9 10 11 14 16 17 
 7 
 7 8 10 12 13 16 17 
 8 
 1 5 6 7 8 9 14 17 
 17 
 1 2 3 4 5 6 7 8 9 10 11 12 
 13 14 15 16 17 
 15 
 1 2 3 5 6 7 8 9 11 12 13 14 
 15 16 17 
 8 
 1 2 5 7 9 12 15 17 
 7 
 1 2 5 7 12 15 16 
 3 
 1 10 13 
 4 
 6 9 14 17 
 15 
 1 3 4 5 6 7 8 9 10 12 13 14 
 15 16 17 
 5 
 2 3 5 7 17 
 5 
 4 6 9 16 17 
 7 
 4 8 10 11 12 15 16 
 13 
 1 3 4 5 6 7 8 9 10 12 13 16 
 17 
 11 
 1 4 5 6 7 9 10 11 13 15 16 
 10 
 1 2 4 7 8 11 12 14 16 17 
 6 
 1 3 9 14 16 17 
 8 
 1 6 8 10 11 13 14 15 
 14 
 1 2 5 6 7 8 9 10 11 12 14 15 
 16 17 
 4 
 7 11 12 15 
 13 
 1 2 3 5 7 8 9 10 11 12 13 15 
 16 
 2 
 3 17 
 15 
 1 2 3 4 5 6 7 8 10 12 13 14 
 15 16 17 
 11 
 1 2 3 4 5 8 11 14 15 16 17 
 11 
 5 6 7 8 9 11 13 14 15 16 17 
 6 
 8 9 10 12 16 17 
 4 
 2 4 5 11 
 13 
 1 3 6 7 8 9 10 11 12 13 15 16 
 17 
 5 
 4 10 11 13 14 
 12 
 1 2 5 7 8 9 10 11 12 13 15 16 
 3 
 2 8 11 
 5 
 1 3 7 11 12 
 5 
 3 5 6 7 16 
 6 
 2 3 5 8 16 17 
 11 
 1 2 3 7 9 10 11 13 15 16 17 
 14 
 1 2 3 4 5 7 8 9 10 11 12 15 
 16 17 
 2 
 7 10 
 7 
 2 3 9 10 11 15 16 
 14 
 1 2 3 4 6 7 9 10 11 12 14 15 
 16 17 
 15 
 1 2 3 4 6 7 8 9 10 11 12 13 
 14 15 17 
 17 
 1 2 3 4 5 6 7 8 9 10 11 12 
 13 14 15 16 17 
 